p tw 50 113
e 0 3
e 0 4
e 0 21
e 0 22
e 0 30
e 1 34
e 1 40
e 2 6
e 2 10
e 2 12
e 2 14
e 2 21
e 2 24
e 2 30
e 3 8
e 3 11
e 3 12
e 3 14
e 3 30
e 3 31
e 3 36
e 4 6
e 4 10
e 4 19
e 4 25
e 4 31
e 4 35
e 4 45
e 5 6
e 5 30
e 5 35
e 5 36
e 6 8
e 6 21
e 6 44
e 7 8
e 7 30
e 7 31
e 7 41
e 7 42
e 8 15
e 8 28
e 8 36
e 9 14
e 9 25
e 10 23
e 10 39
e 11 14
e 11 41
e 11 48
e 12 14
e 12 20
e 12 23
e 12 30
e 12 43
e 13 37
e 13 47
e 14 17
e 15 42
e 16 20
e 16 26
e 16 45
e 17 27
e 17 30
e 17 42
e 18 22
e 18 43
e 18 46
e 19 21
e 19 28
e 19 35
e 19 43
e 19 46
e 20 22
e 20 43
e 21 30
e 23 31
e 23 41
e 23 46
e 23 47
e 23 48
e 24 26
e 25 48
e 25 49
e 26 32
e 26 44
e 26 47
e 27 30
e 27 38
e 28 29
e 28 43
e 28 44
e 29 35
e 29 48
e 30 35
e 30 48
e 31 39
e 33 38
e 33 43
e 35 38
e 35 39
e 35 43
e 36 46
e 37 42
e 38 47
e 39 41
e 40 41
e 40 47
e 42 48
e 44 48
e 46 47
e 46 48
e 47 48
